* #variable= 26 #constraint= 1
-1 x1 +1 x2 +2 x3 +3 x4 +5 x5 +2 x6 +4 x7 +5 x8 +6 x9 -0 x10 +8 x11 +18 x12 +30 x13 -0 x14 -0 x15 +1 x16 +2 x17 -0 x18 +2 x19 +3 x20 +5 x21 -1 x22 -1 x23 -1 x24 -2 x25 -1 x26 >= 8;
